
===== New CPLEX run =====
Instance: /home/yorig/tuner/mpils-tests/instances/miplib/medium-1/neos-1456979.mps
Config: /scratch/yorig/mpils-results-grid-ticks-10000-2proc-no-mip-start/medium-1/2proc/seed-5/8_neos-1456979_seed-5_20260501_233521/iterated_local_search/run_2_worker_1/ils_config_10779356066083467832.prm
========================

Selected objective sense:  MINIMIZE
Selected objective  name:  R6771
Selected RHS        name:  B
Selected bound      name:  BOUND
Version identifier: 22.1.2.0 | 2024-11-26 | 0edbb82fd
CPXPARAM_Threads                                 8
CPXPARAM_Parallel                                1
CPXPARAM_MIP_Cuts_FlowCovers                     1
CPXPARAM_MIP_Cuts_Implied                        -1
CPXPARAM_MIP_Cuts_GUBCovers                      2
CPXPARAM_MIP_Limits_GomoryCand                   100
CPXPARAM_MIP_Cuts_Gomory                         -1
CPXPARAM_MIP_Cuts_PathCut                        1
CPXPARAM_MIP_Cuts_MIRCut                         2
CPXPARAM_MIP_Cuts_Disjunctive                    2
CPXPARAM_Emphasis_MIP                            4
CPXPARAM_DetTimeLimit                            10000
CPXPARAM_MIP_Limits_ProbeTime                    120
Tried aggregator 1 time.
MIP Presolve eliminated 175 rows and 10 columns.
MIP Presolve modified 4950 coefficients.
Reduced MIP has 6595 rows, 4595 columns, and 35740 nonzeros.
Reduced MIP has 4245 binaries, 175 generals, 0 SOSs, and 0 indicators.
Presolve time = 0.01 sec. (15.92 ticks)
Probing time = 0.03 sec. (33.51 ticks)
Tried aggregator 1 time.
Detecting symmetries...
MIP Presolve modified 90 coefficients.
Reduced MIP has 6595 rows, 4595 columns, and 35740 nonzeros.
Reduced MIP has 4245 binaries, 175 generals, 0 SOSs, and 0 indicators.
Presolve time = 0.02 sec. (27.11 ticks)
Probing time = 0.07 sec. (33.23 ticks)
Clique table members: 20433.
MIP emphasis: hidden feasible solutions.
MIP search method: dynamic search.
Parallel mode: deterministic, using up to 8 threads.
Root relaxation solution time = 0.03 sec. (38.64 ticks)

        Nodes                                         Cuts/
   Node  Left     Objective  IInf  Best Integer    Best Bound    ItCnt     Gap

      0     0      154.0000   120                    154.0000      736         
      0     0      154.0000   122                    Cuts: 73      872         
      0     0      154.0000   138                    Cuts: 57     1081         
      0     2      154.0000   100                    154.0000     1083         
Elapsed time = 1.92 sec. (1227.98 ticks, tree = 0.02 MB, solutions = 0)
     72    51      162.9841   117                    156.2222     5442         
*   152+  105                          240.0000      156.2222            34.91%
    232   180      174.3125   119      240.0000      156.2222    15060   34.91%
    324   269      177.2489    61      240.0000      156.2222    21843   34.91%
*   407   305      integral     0      214.0000      157.3488    24920   26.47%
    478   372      162.3333   107      214.0000      157.3488    31536   26.47%
    612   470      197.3938   127      214.0000      158.1278    44979   26.11%
    729   551      185.3622   110      214.0000      159.0000    51084   25.70%
*   793   595      integral     0      187.0000      159.0000    54769   14.97%
    919   470      171.2085   128      187.0000      159.0000    58078   14.97%
   1132   589      161.0270   151      187.0000      159.2160    66125   14.86%
   1337   813      173.1358   114      187.0000      159.2160    76721   14.86%
   2074  1400      169.4745   129      187.0000      160.6917   108492   14.07%
Elapsed time = 6.03 sec. (4338.69 ticks, tree = 49.59 MB, solutions = 3)
*  2631+ 1914                          184.0000      161.6768            12.13%
   2792  1709      168.5000   129      184.0000      162.0000   138130   11.96%
*  3279+ 2090                          180.0000      162.0000            10.00%

Performing restart 1

Repeating presolve.
Tried aggregator 2 times.
MIP Presolve eliminated 357 rows and 242 columns.
MIP Presolve modified 5250 coefficients.
Aggregator did 5 substitutions.
Reduced MIP has 6233 rows, 4348 columns, and 32192 nonzeros.
Reduced MIP has 4008 binaries, 170 generals, 0 SOSs, and 0 indicators.
Presolve time = 0.03 sec. (46.32 ticks)
Tried aggregator 1 time.
MIP Presolve modified 230 coefficients.
Reduced MIP has 6233 rows, 4348 columns, and 32192 nonzeros.
Reduced MIP has 4008 binaries, 170 generals, 0 SOSs, and 0 indicators.
Presolve time = 0.02 sec. (23.03 ticks)
Represolve time = 0.08 sec. (112.23 ticks)
   3375     0      154.8333   129      180.0000      Cuts: 41   174618    9.77%
   3375     0      155.6667   154      180.0000      Cuts: 37   174750    9.77%
   3375     0      156.3372   212      180.0000     Cuts: 108   174886    9.77%
   3375     0      157.6722   218      180.0000      Cuts: 36   175152    9.77%
   3375     0      159.5000   206      180.0000     Cuts: 126   175262    9.77%
   3375     0      161.0000   220      180.0000      Cuts: 40   175412    9.77%
   3375     0      161.8000   194      180.0000      Cuts: 65   175559    9.77%
   3375     0      162.1750   265      180.0000      Cuts: 65   175858    9.77%
   3375     0      162.6333   214      180.0000      Cuts: 86   175960    9.65%
   3375     0      163.8235   238      180.0000      Cuts: 31   176208    8.99%
   3375     0      163.9062   224      180.0000      Cuts: 76   176272    8.94%
   3375     0      163.9062   232      180.0000      Cuts: 17   176369    8.94%
   3375     0      163.9062   178      180.0000       Cuts: 8   176409    8.94%
   3375     0      163.9062   207      180.0000      Cuts: 97   176587    8.94%
   3375     0      163.9062   202      180.0000      Cuts: 47   176745    8.94%

GUB cover cuts applied:  2
Clique cuts applied:  1
Cover cuts applied:  5
Flow cuts applied:  3
Mixed integer rounding cuts applied:  157
Flow path cuts applied:  0
Zero-half cuts applied:  82
Multi commodity flow cuts applied:  1
Disjunctive cuts applied:  0
Cone linearizations applied:  0

Root node processing (before b&c):
  Real time             =    1.68 sec. (1225.68 ticks)
Parallel b&c, 8 threads:
  Real time             =    9.37 sec. (8775.79 ticks)
  Sync time (average)   =    1.76 sec.
  Wait time (average)   =    0.00 sec.
                          ------------
Total (root+branch&cut) =   11.05 sec. (10001.48 ticks)
Gap: 8.94%
Upper bound: 180
Lower bound: 163.906
End of CPLEX run. Time: 11.0629 seconds

===== New CPLEX run =====
Instance: /home/yorig/tuner/mpils-tests/instances/miplib/medium-1/neos-1456979.mps
Config: /scratch/yorig/mpils-results-grid-ticks-10000-2proc-no-mip-start/medium-1/2proc/seed-5/8_neos-1456979_seed-5_20260501_233521/iterated_local_search/run_2_worker_1/ils_config_18072993771886619407.prm
========================

Selected objective sense:  MINIMIZE
Selected objective  name:  R6771
Selected RHS        name:  B
Selected bound      name:  BOUND
Version identifier: 22.1.2.0 | 2024-11-26 | 0edbb82fd
CPXPARAM_Threads                                 8
CPXPARAM_Parallel                                1
CPXPARAM_MIP_Cuts_FlowCovers                     1
CPXPARAM_MIP_Cuts_Implied                        -1
CPXPARAM_MIP_Cuts_GUBCovers                      2
CPXPARAM_MIP_Limits_GomoryCand                   100
CPXPARAM_MIP_Cuts_Gomory                         -1
CPXPARAM_MIP_Cuts_MIRCut                         2
CPXPARAM_MIP_Cuts_Disjunctive                    2
CPXPARAM_Emphasis_MIP                            4
CPXPARAM_DetTimeLimit                            10000
CPXPARAM_MIP_Limits_ProbeTime                    120
Tried aggregator 1 time.
MIP Presolve eliminated 175 rows and 10 columns.
MIP Presolve modified 4950 coefficients.
Reduced MIP has 6595 rows, 4595 columns, and 35740 nonzeros.
Reduced MIP has 4245 binaries, 175 generals, 0 SOSs, and 0 indicators.
Presolve time = 0.01 sec. (15.92 ticks)
Probing time = 0.23 sec. (33.51 ticks)
Tried aggregator 1 time.
Detecting symmetries...
MIP Presolve modified 90 coefficients.
Reduced MIP has 6595 rows, 4595 columns, and 35740 nonzeros.
Reduced MIP has 4245 binaries, 175 generals, 0 SOSs, and 0 indicators.
Presolve time = 0.02 sec. (27.11 ticks)
Probing time = 0.34 sec. (33.23 ticks)
Clique table members: 20433.
MIP emphasis: hidden feasible solutions.
MIP search method: dynamic search.
Parallel mode: deterministic, using up to 8 threads.
Root relaxation solution time = 0.06 sec. (38.64 ticks)

        Nodes                                         Cuts/
   Node  Left     Objective  IInf  Best Integer    Best Bound    ItCnt     Gap

      0     0      154.0000   120                    154.0000      736         
      0     0      154.0000   122                    Cuts: 73      872         
      0     0      154.0000   138                    Cuts: 57     1081         
      0     2      154.0000   100                    154.0000     1083         
Elapsed time = 1.92 sec. (1227.98 ticks, tree = 0.02 MB, solutions = 0)
     72    51      162.9841   117                    156.2222     5442         
*   152+  105                          240.0000      156.2222            34.91%
    232   180      174.3125   119      240.0000      156.2222    15060   34.91%
    324   269      177.2489    61      240.0000      156.2222    21843   34.91%
*   407   305      integral     0      214.0000      157.3488    24920   26.47%
    478   372      162.3333   107      214.0000      157.3488    31536   26.47%
    612   470      197.3938   127      214.0000      158.1278    44979   26.11%
    729   551      185.3622   110      214.0000      159.0000    51084   25.70%
*   793   595      integral     0      187.0000      159.0000    54769   14.97%
    919   470      171.2085   128      187.0000      159.0000    58078   14.97%
   1132   589      161.0270   151      187.0000      159.2160    66125   14.86%
   1337   813      173.1358   114      187.0000      159.2160    76721   14.86%
   2074  1400      169.4745   129      187.0000      160.6917   108492   14.07%
Elapsed time = 6.12 sec. (4338.69 ticks, tree = 49.59 MB, solutions = 3)
*  2631+ 1914                          184.0000      161.6768            12.13%
   2792  1709      168.5000   129      184.0000      162.0000   138130   11.96%
*  3279+ 2090                          180.0000      162.0000            10.00%

Performing restart 1

Repeating presolve.
Tried aggregator 2 times.
MIP Presolve eliminated 357 rows and 242 columns.
MIP Presolve modified 5250 coefficients.
Aggregator did 5 substitutions.
Reduced MIP has 6233 rows, 4348 columns, and 32192 nonzeros.
Reduced MIP has 4008 binaries, 170 generals, 0 SOSs, and 0 indicators.
Presolve time = 0.03 sec. (46.32 ticks)
Tried aggregator 1 time.
MIP Presolve modified 230 coefficients.
Reduced MIP has 6233 rows, 4348 columns, and 32192 nonzeros.
Reduced MIP has 4008 binaries, 170 generals, 0 SOSs, and 0 indicators.
Presolve time = 0.02 sec. (23.03 ticks)
Represolve time = 0.08 sec. (112.23 ticks)
   3375     0      154.8333   129      180.0000      Cuts: 41   174618    9.77%
   3375     0      155.6667   154      180.0000      Cuts: 37   174750    9.77%
   3375     0      156.3372   212      180.0000     Cuts: 108   174886    9.77%
   3375     0      157.6722   218      180.0000      Cuts: 36   175152    9.77%
   3375     0      159.5000   206      180.0000     Cuts: 126   175262    9.77%
   3375     0      161.0000   220      180.0000      Cuts: 40   175412    9.77%
   3375     0      161.8000   194      180.0000      Cuts: 65   175559    9.77%
   3375     0      162.1750   265      180.0000      Cuts: 65   175858    9.77%
   3375     0      162.6333   214      180.0000      Cuts: 86   175960    9.65%
   3375     0      163.8235   238      180.0000      Cuts: 31   176208    8.99%
   3375     0      163.9062   224      180.0000      Cuts: 76   176272    8.94%
   3375     0      163.9062   232      180.0000      Cuts: 17   176369    8.94%
   3375     0      163.9062   178      180.0000       Cuts: 8   176409    8.94%
   3375     0      163.9062   207      180.0000      Cuts: 97   176587    8.94%
   3375     0      163.9062   202      180.0000      Cuts: 47   176745    8.94%

GUB cover cuts applied:  2
Clique cuts applied:  1
Cover cuts applied:  5
Flow cuts applied:  3
Mixed integer rounding cuts applied:  157
Zero-half cuts applied:  82
Multi commodity flow cuts applied:  1
Disjunctive cuts applied:  0
Cone linearizations applied:  0

Root node processing (before b&c):
  Real time             =    1.83 sec. (1225.68 ticks)
Parallel b&c, 8 threads:
  Real time             =    9.87 sec. (8775.79 ticks)
  Sync time (average)   =    2.06 sec.
  Wait time (average)   =    0.00 sec.
                          ------------
Total (root+branch&cut) =   11.70 sec. (10001.48 ticks)
Gap: 8.94%
Upper bound: 180
Lower bound: 163.906
End of CPLEX run. Time: 11.7069 seconds

===== New CPLEX run =====
Instance: /home/yorig/tuner/mpils-tests/instances/miplib/medium-1/neos-1456979.mps
Config: /scratch/yorig/mpils-results-grid-ticks-10000-2proc-no-mip-start/medium-1/2proc/seed-5/8_neos-1456979_seed-5_20260501_233521/iterated_local_search/run_2_worker_1/ils_config_9640569143000938697.prm
========================

Selected objective sense:  MINIMIZE
Selected objective  name:  R6771
Selected RHS        name:  B
Selected bound      name:  BOUND
Version identifier: 22.1.2.0 | 2024-11-26 | 0edbb82fd
CPXPARAM_Threads                                 8
CPXPARAM_Parallel                                1
CPXPARAM_MIP_Cuts_FlowCovers                     1
CPXPARAM_MIP_Cuts_Implied                        -1
CPXPARAM_MIP_Limits_GomoryCand                   100
CPXPARAM_MIP_Cuts_Gomory                         -1
CPXPARAM_MIP_Cuts_PathCut                        1
CPXPARAM_MIP_Cuts_MIRCut                         2
CPXPARAM_MIP_Cuts_Disjunctive                    2
CPXPARAM_Emphasis_MIP                            4
CPXPARAM_DetTimeLimit                            10000
CPXPARAM_MIP_Limits_ProbeTime                    120
Tried aggregator 1 time.
MIP Presolve eliminated 175 rows and 10 columns.
MIP Presolve modified 4950 coefficients.
Reduced MIP has 6595 rows, 4595 columns, and 35740 nonzeros.
Reduced MIP has 4245 binaries, 175 generals, 0 SOSs, and 0 indicators.
Presolve time = 0.01 sec. (15.92 ticks)
Probing time = 0.15 sec. (33.51 ticks)
Tried aggregator 1 time.
Detecting symmetries...
MIP Presolve modified 90 coefficients.
Reduced MIP has 6595 rows, 4595 columns, and 35740 nonzeros.
Reduced MIP has 4245 binaries, 175 generals, 0 SOSs, and 0 indicators.
Presolve time = 0.02 sec. (27.11 ticks)
Probing time = 0.11 sec. (33.23 ticks)
Clique table members: 20433.
MIP emphasis: hidden feasible solutions.
MIP search method: dynamic search.
Parallel mode: deterministic, using up to 8 threads.
Root relaxation solution time = 0.06 sec. (38.64 ticks)

        Nodes                                         Cuts/
   Node  Left     Objective  IInf  Best Integer    Best Bound    ItCnt     Gap

      0     0      154.0000   120                    154.0000      736         
      0     0      154.0000   122                    Cuts: 73      872         
      0     0      154.0000   138                    Cuts: 57     1081         
      0     2      154.0000   100                    154.0000     1083         
Elapsed time = 1.62 sec. (1227.98 ticks, tree = 0.02 MB, solutions = 0)
     72    51      162.9841   117                    156.2222     5442         
*   152+  105                          240.0000      156.2222            34.91%
    232   180      174.3125   119      240.0000      156.2222    15060   34.91%
    324   269      177.2489    61      240.0000      156.2222    21843   34.91%
*   407   305      integral     0      214.0000      157.3488    24920   26.47%
    478   372      162.3333   107      214.0000      157.3488    31536   26.47%
    612   470      197.3938   127      214.0000      158.1278    44979   26.11%
    729   551      185.3622   110      214.0000      159.0000    51084   25.70%
*   793   595      integral     0      187.0000      159.0000    54769   14.97%
    919   470      171.2085   128      187.0000      159.0000    58078   14.97%
   1132   589      161.0270   151      187.0000      159.2160    66125   14.86%
   1337   813      173.1358   114      187.0000      159.2160    76721   14.86%
   2074  1400      169.4745   129      187.0000      160.6917   108492   14.07%
Elapsed time = 5.72 sec. (4338.69 ticks, tree = 49.59 MB, solutions = 3)
*  2631+ 1914                          184.0000      161.6768            12.13%
   2792  1709      168.5000   129      184.0000      162.0000   138130   11.96%
*  3279+ 2090                          180.0000      162.0000            10.00%

Performing restart 1

Repeating presolve.
Tried aggregator 2 times.
MIP Presolve eliminated 357 rows and 242 columns.
MIP Presolve modified 5250 coefficients.
Aggregator did 5 substitutions.
Reduced MIP has 6233 rows, 4348 columns, and 32192 nonzeros.
Reduced MIP has 4008 binaries, 170 generals, 0 SOSs, and 0 indicators.
Presolve time = 0.03 sec. (46.32 ticks)
Tried aggregator 1 time.
MIP Presolve modified 230 coefficients.
Reduced MIP has 6233 rows, 4348 columns, and 32192 nonzeros.
Reduced MIP has 4008 binaries, 170 generals, 0 SOSs, and 0 indicators.
Presolve time = 0.02 sec. (23.03 ticks)
Represolve time = 0.20 sec. (112.23 ticks)
   3375     0      154.8333   129      180.0000      Cuts: 41   174618    9.77%
   3375     0      155.6667   154      180.0000      Cuts: 37   174750    9.77%
   3375     0      156.3372   212      180.0000     Cuts: 108   174886    9.77%
   3375     0      157.6722   218      180.0000      Cuts: 36   175152    9.77%
   3375     0      159.5000   206      180.0000     Cuts: 126   175262    9.77%
   3375     0      161.0000   220      180.0000      Cuts: 40   175412    9.77%
   3375     0      161.8000   194      180.0000      Cuts: 65   175559    9.77%
   3375     0      162.1750   265      180.0000      Cuts: 65   175858    9.77%
   3375     0      162.6333   214      180.0000      Cuts: 86   175960    9.65%
   3375     0      163.8235   238      180.0000      Cuts: 31   176208    8.99%
   3375     0      163.9062   224      180.0000      Cuts: 76   176272    8.94%
   3375     0      163.9062   232      180.0000      Cuts: 17   176369    8.94%
   3375     0      163.9062   178      180.0000       Cuts: 8   176409    8.94%
   3375     0      163.9062   207      180.0000      Cuts: 97   176587    8.94%
   3375     0      163.9062   202      180.0000      Cuts: 47   176745    8.94%

GUB cover cuts applied:  2
Clique cuts applied:  1
Cover cuts applied:  5
Flow cuts applied:  3
Mixed integer rounding cuts applied:  157
Flow path cuts applied:  0
Zero-half cuts applied:  82
Multi commodity flow cuts applied:  1
Disjunctive cuts applied:  0
Cone linearizations applied:  0

Root node processing (before b&c):
  Real time             =    1.54 sec. (1225.68 ticks)
Parallel b&c, 8 threads:
  Real time             =    9.91 sec. (8775.79 ticks)
  Sync time (average)   =    1.95 sec.
  Wait time (average)   =    0.00 sec.
                          ------------
Total (root+branch&cut) =   11.45 sec. (10001.48 ticks)
Gap: 8.94%
Upper bound: 180
Lower bound: 163.906
End of CPLEX run. Time: 11.459 seconds

===== New CPLEX run =====
Instance: /home/yorig/tuner/mpils-tests/instances/miplib/medium-1/neos-1456979.mps
Config: /scratch/yorig/mpils-results-grid-ticks-10000-2proc-no-mip-start/medium-1/2proc/seed-5/8_neos-1456979_seed-5_20260501_233521/iterated_local_search/run_2_worker_1/ils_config_10955411328514836892.prm
========================

Selected objective sense:  MINIMIZE
Selected objective  name:  R6771
Selected RHS        name:  B
Selected bound      name:  BOUND
Version identifier: 22.1.2.0 | 2024-11-26 | 0edbb82fd
CPXPARAM_Threads                                 8
CPXPARAM_Parallel                                1
CPXPARAM_MIP_Cuts_FlowCovers                     1
CPXPARAM_MIP_Cuts_Implied                        -1
CPXPARAM_MIP_Cuts_GUBCovers                      2
CPXPARAM_MIP_Limits_GomoryCand                   100
CPXPARAM_MIP_Cuts_Gomory                         -1
CPXPARAM_MIP_Cuts_PathCut                        1
CPXPARAM_MIP_Cuts_MIRCut                         2
CPXPARAM_MIP_Cuts_Disjunctive                    2
CPXPARAM_DetTimeLimit                            10000
CPXPARAM_MIP_Limits_ProbeTime                    120
Tried aggregator 1 time.
MIP Presolve eliminated 175 rows and 10 columns.
MIP Presolve modified 4950 coefficients.
Reduced MIP has 6595 rows, 4595 columns, and 35740 nonzeros.
Reduced MIP has 4245 binaries, 175 generals, 0 SOSs, and 0 indicators.
Presolve time = 0.01 sec. (15.92 ticks)
Probing time = 0.07 sec. (33.51 ticks)
Tried aggregator 1 time.
Detecting symmetries...
MIP Presolve modified 90 coefficients.
Reduced MIP has 6595 rows, 4595 columns, and 35740 nonzeros.
Reduced MIP has 4245 binaries, 175 generals, 0 SOSs, and 0 indicators.
Presolve time = 0.02 sec. (27.11 ticks)
Probing time = 0.11 sec. (33.23 ticks)
Clique table members: 20433.
MIP emphasis: balance optimality and feasibility.
MIP search method: dynamic search.
Parallel mode: deterministic, using up to 8 threads.
Root relaxation solution time = 0.05 sec. (38.64 ticks)

        Nodes                                         Cuts/
   Node  Left     Objective  IInf  Best Integer    Best Bound    ItCnt     Gap

      0     0      154.0000   120                    154.0000      736         
      0     0      154.0000   122                    Cuts: 73      872         
      0     0      154.0000   138                    Cuts: 57     1081         
      0     2      154.0000   100                    154.0000     1083         
Elapsed time = 1.85 sec. (1227.98 ticks, tree = 0.02 MB, solutions = 0)
     72    51      162.9841   117                    156.2222     5442         
*   152+  105                          240.0000      156.2222            34.91%
    231   187      186.3827    44      240.0000      156.2222    15905   34.91%
*   290   244      integral     0      191.0000      156.2222    20541   18.21%
    328   238      184.0074    43      191.0000      156.2222    21325   18.21%
    472   307      160.3333   111      191.0000      158.1278    28173   17.21%
    652   465      169.3333   113      191.0000      159.2160    42493   16.64%
    809   549      165.0652   123      191.0000      159.2160    47896   16.64%
    986   760      182.5827    66      191.0000      159.2160    57928   16.64%
   1256   888      176.6073    86      191.0000      159.2160    63162   16.64%
   1508  1100      187.1776   136      191.0000      159.2160    71247   16.64%
   2256  1764      174.6429   126      191.0000      160.9080   105004   15.75%
Elapsed time = 6.35 sec. (4339.05 ticks, tree = 65.42 MB, solutions = 2)
   2947  2422      187.0000   104      191.0000      161.4490   141709   15.47%

Performing restart 1

Repeating presolve.
Tried aggregator 1 time.
MIP Presolve eliminated 21 rows and 15 columns.
MIP Presolve modified 4718 coefficients.
Reduced MIP has 6574 rows, 4580 columns, and 34198 nonzeros.
Reduced MIP has 4230 binaries, 175 generals, 0 SOSs, and 0 indicators.
Presolve time = 0.02 sec. (33.96 ticks)
Tried aggregator 1 time.
Reduced MIP has 6574 rows, 4580 columns, and 34198 nonzeros.
Reduced MIP has 4230 binaries, 175 generals, 0 SOSs, and 0 indicators.
Presolve time = 0.02 sec. (25.06 ticks)
Represolve time = 0.08 sec. (104.41 ticks)
   3373     0      155.0000   177      191.0000      Cuts: 23   167797   15.28%
   3373     0      155.6667   119      191.0000      Cuts: 91   167955   15.28%
   3373     0      156.0000   157      191.0000     Cuts: 124   168099   15.28%
   3373     0      156.0000   149      191.0000      Cuts: 39   168245   15.28%
   3373     0      156.3488   173      191.0000     Cuts: 107   168481   15.28%
   3373     0      156.5000   185      191.0000      Cuts: 79   168719   15.28%
   3373     0      156.5000   127      191.0000      Cuts: 48   168928   15.28%
   3373     0      161.8333   205      191.0000     Cuts: 109   169329   15.27%
   3373     0      163.0833   166      191.0000     Cuts: 221   169549   14.62%
   3373     0      164.2000   217      191.0000      Cuts: 79   169694   14.03%
   3373     0      165.0000   192      191.0000      Cuts: 75   169745   13.61%
   3373     0      165.0000   173      191.0000      Cuts: 38   169835   13.61%
   3373     0      165.0000   176      191.0000     Cuts: 106   169866   13.61%

GUB cover cuts applied:  0
Clique cuts applied:  2
Flow cuts applied:  4
Mixed integer rounding cuts applied:  163
Flow path cuts applied:  0
Zero-half cuts applied:  106
Multi commodity flow cuts applied:  2
Disjunctive cuts applied:  0
Cone linearizations applied:  0

Root node processing (before b&c):
  Real time             =    1.72 sec. (1225.67 ticks)
Parallel b&c, 8 threads:
  Real time             =    9.76 sec. (8779.45 ticks)
  Sync time (average)   =    2.56 sec.
  Wait time (average)   =    0.00 sec.
                          ------------
Total (root+branch&cut) =   11.48 sec. (10005.12 ticks)
Gap: 12.57%
Upper bound: 191
Lower bound: 167
End of CPLEX run. Time: 11.4936 seconds

===== New CPLEX run =====
Instance: /home/yorig/tuner/mpils-tests/instances/miplib/medium-1/neos-1456979.mps
Config: /scratch/yorig/mpils-results-grid-ticks-10000-2proc-no-mip-start/medium-1/2proc/seed-5/8_neos-1456979_seed-5_20260501_233521/iterated_local_search/run_2_worker_1/ils_config_17523810073031021815.prm
========================

Selected objective sense:  MINIMIZE
Selected objective  name:  R6771
Selected RHS        name:  B
Selected bound      name:  BOUND
Version identifier: 22.1.2.0 | 2024-11-26 | 0edbb82fd
CPXPARAM_Threads                                 8
CPXPARAM_Parallel                                1
CPXPARAM_MIP_Cuts_FlowCovers                     -1
CPXPARAM_MIP_Cuts_Implied                        -1
CPXPARAM_MIP_Cuts_GUBCovers                      2
CPXPARAM_MIP_Limits_GomoryCand                   100
CPXPARAM_MIP_Cuts_Gomory                         -1
CPXPARAM_MIP_Cuts_PathCut                        1
CPXPARAM_MIP_Cuts_MIRCut                         2
CPXPARAM_MIP_Cuts_Disjunctive                    2
CPXPARAM_Emphasis_MIP                            4
CPXPARAM_DetTimeLimit                            10000
CPXPARAM_MIP_Limits_ProbeTime                    120
Tried aggregator 1 time.
MIP Presolve eliminated 175 rows and 10 columns.
MIP Presolve modified 4950 coefficients.
Reduced MIP has 6595 rows, 4595 columns, and 35740 nonzeros.
Reduced MIP has 4245 binaries, 175 generals, 0 SOSs, and 0 indicators.
Presolve time = 0.01 sec. (15.92 ticks)
Probing time = 0.16 sec. (33.51 ticks)
Tried aggregator 1 time.
Detecting symmetries...
MIP Presolve modified 90 coefficients.
Reduced MIP has 6595 rows, 4595 columns, and 35740 nonzeros.
Reduced MIP has 4245 binaries, 175 generals, 0 SOSs, and 0 indicators.
Presolve time = 0.02 sec. (27.11 ticks)
Probing time = 0.15 sec. (33.23 ticks)
Clique table members: 20433.
MIP emphasis: hidden feasible solutions.
MIP search method: dynamic search.
Parallel mode: deterministic, using up to 8 threads.
Root relaxation solution time = 0.03 sec. (38.64 ticks)

        Nodes                                         Cuts/
   Node  Left     Objective  IInf  Best Integer    Best Bound    ItCnt     Gap

      0     0      154.0000   120                    154.0000      736         
      0     0      154.0000   122                    Cuts: 73      872         
      0     0      154.0000   138                    Cuts: 57     1081         
      0     2      154.0000   100                    154.0000     1083         
Elapsed time = 1.99 sec. (1226.99 ticks, tree = 0.02 MB, solutions = 0)
     72    51      162.9841   117                    156.2222     5442         
*   152+  105                          240.0000      156.2222            34.91%
    232   180      174.3125   119      240.0000      156.2222    15060   34.91%
    324   269      177.2489    61      240.0000      156.2222    21843   34.91%
*   407   305      integral     0      214.0000      157.3488    24920   26.47%
    478   372      162.3333   107      214.0000      157.3488    31536   26.47%
    612   470      197.3938   127      214.0000      158.1278    44979   26.11%
    729   551      185.3622   110      214.0000      159.0000    51084   25.70%
*   793   595      integral     0      187.0000      159.0000    54769   14.97%
    919   470      171.2085   128      187.0000      159.0000    58078   14.97%
   1132   589      161.0270   151      187.0000      159.2160    66125   14.86%
   1337   813      173.1358   114      187.0000      159.2160    76721   14.86%
   2074  1400      169.4745   129      187.0000      160.6917   108492   14.07%
Elapsed time = 6.16 sec. (4337.71 ticks, tree = 49.59 MB, solutions = 3)
*  2631+ 1914                          184.0000      161.6768            12.13%
   2792  1709      168.5000   129      184.0000      162.0000   138130   11.96%
*  3279+ 2090                          180.0000      162.0000            10.00%

Performing restart 1

Repeating presolve.
Tried aggregator 2 times.
MIP Presolve eliminated 357 rows and 242 columns.
MIP Presolve modified 5250 coefficients.
Aggregator did 5 substitutions.
Reduced MIP has 6233 rows, 4348 columns, and 32192 nonzeros.
Reduced MIP has 4008 binaries, 170 generals, 0 SOSs, and 0 indicators.
Presolve time = 0.03 sec. (46.32 ticks)
Tried aggregator 1 time.
MIP Presolve modified 230 coefficients.
Reduced MIP has 6233 rows, 4348 columns, and 32192 nonzeros.
Reduced MIP has 4008 binaries, 170 generals, 0 SOSs, and 0 indicators.
Presolve time = 0.02 sec. (23.03 ticks)
Represolve time = 0.08 sec. (112.23 ticks)
   3375     0      154.8333   129      180.0000      Cuts: 37   174597    9.77%
   3375     0      155.6667   148      180.0000      Cuts: 69   174776    9.77%
   3375     0      155.6667   151      180.0000      Cuts: 86   174820    9.77%
   3375     0      156.1520   145      180.0000      Cuts: 32   175034    9.77%
   3375     0      156.7500   165      180.0000     Cuts: 136   175074    9.77%
   3375     0      159.1037   227      180.0000      Cuts: 17   175350    9.77%
   3375     0      160.4375   190      180.0000     Cuts: 132   175466    9.77%
   3375     0      162.5833   192      180.0000      Cuts: 47   175704    9.68%
   3375     0      163.0000   201      180.0000      Cuts: 78   175829    9.44%
   3375     0      163.4167   233      180.0000      Cuts: 44   175933    9.21%
   3375     0      164.3333   222      180.0000      Cuts: 20   176031    8.70%
   3375     0      164.3333   256      180.0000      Cuts: 30   176077    8.70%
   3375     0      164.4286   220      180.0000       Cuts: 9   176144    8.65%
   3375     0      164.5556   226      180.0000      Cuts: 46   176193    8.58%
   3375     0      165.2143   234      180.0000      Cuts: 71   176266    8.21%
   3375     0      165.7500   219      180.0000      Cuts: 47   176498    7.92%
   3375     0      166.5000   211      180.0000      Cuts: 55   176666    7.50%
   3375     0      166.5000   264      180.0000      Cuts: 86   176860    7.50%

GUB cover cuts applied:  0
Clique cuts applied:  2
Cover cuts applied:  1
Mixed integer rounding cuts applied:  164
Flow path cuts applied:  0
Zero-half cuts applied:  91
Disjunctive cuts applied:  0
Cone linearizations applied:  0

Root node processing (before b&c):
  Real time             =    1.83 sec. (1224.69 ticks)
Parallel b&c, 8 threads:
  Real time             =    9.51 sec. (8780.93 ticks)
  Sync time (average)   =    2.04 sec.
  Wait time (average)   =    0.00 sec.
                          ------------
Total (root+branch&cut) =   11.33 sec. (10005.63 ticks)
Gap: 7.5%
Upper bound: 180
Lower bound: 166.5
End of CPLEX run. Time: 11.348 seconds

===== New CPLEX run =====
Instance: /home/yorig/tuner/mpils-tests/instances/miplib/medium-1/neos-1456979.mps
Config: /scratch/yorig/mpils-results-grid-ticks-10000-2proc-no-mip-start/medium-1/2proc/seed-5/8_neos-1456979_seed-5_20260501_233521/iterated_local_search/run_2_worker_1/ils_config_7531647328741251365.prm
========================

Selected objective sense:  MINIMIZE
Selected objective  name:  R6771
Selected RHS        name:  B
Selected bound      name:  BOUND
Version identifier: 22.1.2.0 | 2024-11-26 | 0edbb82fd
CPXPARAM_Threads                                 8
CPXPARAM_Parallel                                1
CPXPARAM_MIP_Cuts_FlowCovers                     -1
CPXPARAM_MIP_Cuts_Implied                        -1
CPXPARAM_MIP_Cuts_GUBCovers                      2
CPXPARAM_MIP_Limits_GomoryCand                   100
CPXPARAM_MIP_Cuts_Gomory                         -1
CPXPARAM_MIP_Cuts_PathCut                        1
CPXPARAM_MIP_Cuts_MIRCut                         2
CPXPARAM_MIP_Cuts_Disjunctive                    1
CPXPARAM_Emphasis_MIP                            4
CPXPARAM_DetTimeLimit                            10000
CPXPARAM_MIP_Limits_ProbeTime                    120
Tried aggregator 1 time.
MIP Presolve eliminated 175 rows and 10 columns.
MIP Presolve modified 4950 coefficients.
Reduced MIP has 6595 rows, 4595 columns, and 35740 nonzeros.
Reduced MIP has 4245 binaries, 175 generals, 0 SOSs, and 0 indicators.
Presolve time = 0.01 sec. (15.92 ticks)
Probing time = 0.13 sec. (33.51 ticks)
Tried aggregator 1 time.
Detecting symmetries...
MIP Presolve modified 90 coefficients.
Reduced MIP has 6595 rows, 4595 columns, and 35740 nonzeros.
Reduced MIP has 4245 binaries, 175 generals, 0 SOSs, and 0 indicators.
Presolve time = 0.02 sec. (27.11 ticks)
Probing time = 0.12 sec. (33.23 ticks)
Clique table members: 20433.
MIP emphasis: hidden feasible solutions.
MIP search method: dynamic search.
Parallel mode: deterministic, using up to 8 threads.
Root relaxation solution time = 0.06 sec. (38.64 ticks)

        Nodes                                         Cuts/
   Node  Left     Objective  IInf  Best Integer    Best Bound    ItCnt     Gap

      0     0      154.0000   120                    154.0000      736         
      0     0      154.0000   122                    Cuts: 73      872         
      0     0      154.0000   138                    Cuts: 57     1081         
      0     2      154.0000   100                    154.0000     1083         
Elapsed time = 1.96 sec. (1226.99 ticks, tree = 0.02 MB, solutions = 0)
     72    51      162.9841   117                    156.2222     5442         
*   152+  105                          240.0000      156.2222            34.91%
    232   180      174.3125   119      240.0000      156.2222    15060   34.91%
    324   269      177.2489    61      240.0000      156.2222    21843   34.91%
*   407   305      integral     0      214.0000      157.3488    24920   26.47%
    478   372      162.3333   107      214.0000      157.3488    31536   26.47%
    612   470      197.3938   127      214.0000      158.1278    44979   26.11%
    729   551      185.3622   110      214.0000      159.0000    51084   25.70%
*   793   595      integral     0      187.0000      159.0000    54769   14.97%
    919   470      171.2085   128      187.0000      159.0000    58078   14.97%
   1132   589      161.0270   151      187.0000      159.2160    66125   14.86%
   1337   813      173.1358   114      187.0000      159.2160    76721   14.86%
   2074  1400      169.4745   129      187.0000      160.6917   108492   14.07%
Elapsed time = 6.24 sec. (4337.71 ticks, tree = 49.59 MB, solutions = 3)
*  2631+ 1914                          184.0000      161.6768            12.13%
   2792  1709      168.5000   129      184.0000      162.0000   138130   11.96%
*  3279+ 2090                          180.0000      162.0000            10.00%

Performing restart 1

Repeating presolve.
Tried aggregator 2 times.
MIP Presolve eliminated 357 rows and 242 columns.
MIP Presolve modified 5250 coefficients.
Aggregator did 5 substitutions.
Reduced MIP has 6233 rows, 4348 columns, and 32192 nonzeros.
Reduced MIP has 4008 binaries, 170 generals, 0 SOSs, and 0 indicators.
Presolve time = 0.03 sec. (46.32 ticks)
Tried aggregator 1 time.
MIP Presolve modified 230 coefficients.
Reduced MIP has 6233 rows, 4348 columns, and 32192 nonzeros.
Reduced MIP has 4008 binaries, 170 generals, 0 SOSs, and 0 indicators.
Presolve time = 0.02 sec. (23.03 ticks)
Represolve time = 0.22 sec. (112.23 ticks)
   3375     0      154.8333   129      180.0000      Cuts: 37   174597    9.77%
   3375     0      155.6667   148      180.0000      Cuts: 69   174776    9.77%
   3375     0      155.6667   151      180.0000      Cuts: 86   174820    9.77%
   3375     0      156.1520   145      180.0000      Cuts: 32   175034    9.77%
   3375     0      156.7500   165      180.0000     Cuts: 136   175074    9.77%
   3375     0      159.1037   227      180.0000      Cuts: 17   175350    9.77%
   3375     0      160.4375   190      180.0000     Cuts: 132   175466    9.77%
   3375     0      162.5833   192      180.0000      Cuts: 47   175704    9.68%
   3375     0      163.0000   201      180.0000      Cuts: 78   175829    9.44%
   3375     0      163.4167   233      180.0000      Cuts: 44   175933    9.21%
   3375     0      164.3333   222      180.0000      Cuts: 20   176031    8.70%
   3375     0      164.3333   256      180.0000      Cuts: 30   176077    8.70%
   3375     0      164.4286   220      180.0000       Cuts: 9   176144    8.65%
   3375     0      164.5556   226      180.0000      Cuts: 46   176193    8.58%
   3375     0      165.2143   234      180.0000      Cuts: 71   176266    8.21%
   3375     0      165.7500   219      180.0000      Cuts: 47   176498    7.92%
   3375     0      166.5000   211      180.0000      Cuts: 55   176666    7.50%
   3375     0      166.5000   264      180.0000      Cuts: 86   176860    7.50%

GUB cover cuts applied:  0
Clique cuts applied:  2
Cover cuts applied:  1
Mixed integer rounding cuts applied:  164
Flow path cuts applied:  0
Zero-half cuts applied:  91
Disjunctive cuts applied:  0
Cone linearizations applied:  0

Root node processing (before b&c):
  Real time             =    1.93 sec. (1224.69 ticks)
Parallel b&c, 8 threads:
  Real time             =    9.50 sec. (8780.93 ticks)
  Sync time (average)   =    2.08 sec.
  Wait time (average)   =    0.00 sec.
                          ------------
Total (root+branch&cut) =   11.44 sec. (10005.63 ticks)
Gap: 7.5%
Upper bound: 180
Lower bound: 166.5
End of CPLEX run. Time: 11.4662 seconds
